(declare-const in20 Int)
(declare-const in22 Int)
(declare-const in21 Int)
(declare-const in24 Int)
(declare-const in23 Int)
(declare-const in26 Int)
(declare-const in25 Int)
(declare-const in28 Int)
(declare-const in27 Int)
(declare-const in29 Int)
(declare-const in Int)
(declare-const in0 Int)
(declare-const in2 Int)
(declare-const in1 Int)
(declare-const in4 Int)
(declare-const in3 Int)
(declare-const in6 Int)
(declare-const in5 Int)
(declare-const in8 Int)
(declare-const in7 Int)
(declare-const in11 Int)
(declare-const in10 Int)
(declare-const in9 Int)
(declare-const in13 Int)
(declare-const in12 Int)
(declare-const in15 Int)
(declare-const in14 Int)
(declare-const in17 Int)
(declare-const in16 Int)
(declare-const in19 Int)
(declare-const in18 Int)

(assert (and (and (and (and (and (and (and (and (and (and (and (and (and (and (and (and (and (and (and (and (and (and (and (and (and (and (and (and (and (and (and (and (and (and (and (and (and (and (and (and (and (and (and (and (and (and (and (and (and (and (and (and (and (and (and (and (and (and (and (and (and (and (and (and (and (and (and (and (and (and (and (and (and (and (and (and (and (and (and (and (and (and (and (and (and (and (and (and (and (and (and (and (and (and (and (and (and (and (and (and (and (and (and (and (and (and (and (and (and (and (and (and (and (and (and (and (and (and (and (and (and (and (and (and (and (and (and (and (and (and (and (and (and (and (and (and (and (and (and (and (and (and (and (and (and (and (and (and (and (and (and (and (and (and (and (and (and (and (and (and (and (and (and (and (and (and (and (and (and (and (and (and (and (and (and (and (and (and (and (and (and (and (and (and (and (and (and (and (and (and (and (and (and (and (and (and (and (and (and (and (and (and (and (and (and (and (and (and (and (and (and (and (and (and (and (and (and (and (and (and (and (and (and (and (and (and (and (and (and (and (and (and (and (and (and (and (and (and (and (and (and (and (and (and (and (and (and (and (and (and (and (and (and (and (and (and (and (and (and (and (and (and (and (and (and (and (and (and (and (and (and (and (and (and (and (and (and (and (and (and (and (and (and (and (and (and (and (and (and (and (and (and (and (and (and (and (and (and (and (and (and (and (and (and (and (and (and (and (and (and (and (and (and (and (and (and (and (and (and (and (and (and (and (and (and (and (and (and (and (and (and (and (and (and (and (and (and (and (and (and (and (and (and (and (and (and (and (and (and (and (and (and (and (and (and (and (and (and (and (and (and (and (and (and (and (and (and (and (and (and (and (and (and (and (and (and (and (and (and (and (and (and (and (and (and (and (and (and (and (and (and (and (and (and (and (and (and (and (and (and (and (and (and (and (and (and (and (and (and (and (and (and (and (and (and (and (and (and (and (and (and (and (and (and (and (and (and (and (and (and (and (and (and (and (and (and (and (and (and (and (and (and (and (and (and (and (and (and (and (and (and (and (and (and (and (and (and (and (and (and (and (and (and (and (and (and (and (and (and (and (and (and (and (and (and (and (and (and (and (and (and (and (and (and (and (and (and (and (and (and (and (and (and (and (and (and (and (and (and (and (and (and (and (and (and (and (and (and (and (and (and (and (and (and (and (and (and (and (and (and (and (and (and (and (and (and (and (and (and (and (and (and (and (and (and (and (and (and (and (and (and (and (and (and (and (and (and (and (and (and (and (and (and (and (and (and (and (and (and (and (and (and (and (and (and (and (and (and (and (and (and (and (and (and (and (and (and (and (and (and (and (and (and (and (and (and (and (and (and (and (and (and (and (and (and (and (and (and (and (and (and (and (and (and (and (and (and (and (and (and (and (and (and (and (and (and (and (and (and (and (and (and (and (and (and (and (and (and (and (and (and (and (and (and (and (and (and (and (and (and (and (and (and (and (and (and (and (and (and (and (and (and (and (and (and (and (and (and (and (and (and (and (and (and (and (and (and (and (and (and (and (and (and (and (and (and (and (and (and (and (and (and (and (and (and (and (and (and (and (and (and (and (and (and (and (and (and (and (and (and (and (and (and (and (and (and (and (and (and (and (and (and (and (and (and (and (and (and (and (and (and (and (and (and (and (and (and (and (and (and (and (and (and (and (and (and (and (and (and (and (and (and (and (and (and (and (and (and (and (and (and (and (and (and (and (and (and (and (and (and (and (and (and (and (and (and (and (and (and (and (and (and (and (and (and (and (and (and (and (and (and (and (and (and (and (and (and (and (and (and (and (and (and (and (and (and (and (and (and (and (and (and (and (and (and (and (and (and (and (and (and (and (and (and (and (and (and (and (and (and (and (and (and (and (and (and (and (and (and (and (and (and (and (and (and (and (and (and (and (and (and (and (and (and (and (and (and (and (and (and (and (and (and (and (and (and (and (and (and (and (and (and (and (and (and (and (and (and (and (and (and (and (and (and (and (and (and (and (and (and (and (and (and (and (and (and (and (and (and (and (and (and (and (and (and (and (and (and (and (and (and (and (and (and (and (and (and (and (and (and (and (and (and (and (and (and (and (and (and (and (and (and (and (and (and (and (and (and (and  ( >=  in0 in1)  ( >  in0 in1))  ( >=  in0 in2))  ( >  in0 in2))  ( >=  in1 in2))  ( >  in1 in2))  ( >=  in0 in3))  ( >  in0 in3))  ( >=  in1 in3))  ( >  in1 in3))  ( >=  in2 in3))  ( >  in2 in3))  ( >=  in0 in4))  ( >  in0 in4))  ( >=  in1 in4))  ( >  in1 in4))  ( >=  in2 in4))  ( >  in2 in4))  ( >=  in3 in4))  ( >  in3 in4))  ( >=  in0 in5))  ( >  in0 in5))  ( >=  in1 in5))  ( >  in1 in5))  ( >=  in2 in5))  ( >  in2 in5))  ( >=  in3 in5))  ( >  in3 in5))  ( >=  in4 in5))  ( >  in4 in5))  ( >=  in0 in6))  ( >  in0 in6))  ( >=  in1 in6))  ( >  in1 in6))  ( >=  in2 in6))  ( >  in2 in6))  ( >=  in3 in6))  ( >  in3 in6))  ( >=  in4 in6))  ( >  in4 in6))  ( >=  in5 in6))  ( >  in5 in6))  ( >=  in0 in7))  ( >  in0 in7))  ( >=  in1 in7))  ( >  in1 in7))  ( >=  in2 in7))  ( >  in2 in7))  ( >=  in3 in7))  ( >  in3 in7))  ( >=  in4 in7))  ( >  in4 in7))  ( >=  in5 in7))  ( >  in5 in7))  ( >=  in6 in7))  ( >  in6 in7))  ( >=  in0 in8))  ( >  in0 in8))  ( >=  in1 in8))  ( >  in1 in8))  ( >=  in2 in8))  ( >  in2 in8))  ( >=  in3 in8))  ( >  in3 in8))  ( >=  in4 in8))  ( >  in4 in8))  ( >=  in5 in8))  ( >  in5 in8))  ( >=  in6 in8))  ( >  in6 in8))  ( >=  in7 in8))  ( >  in7 in8))  ( >=  in0 in9))  ( >  in0 in9))  ( >=  in1 in9))  ( >  in1 in9))  ( >=  in2 in9))  ( >  in2 in9))  ( >=  in3 in9))  ( >  in3 in9))  ( >=  in4 in9))  ( >  in4 in9))  ( >=  in5 in9))  ( >  in5 in9))  ( >=  in6 in9))  ( >  in6 in9))  ( >=  in7 in9))  ( >  in7 in9))  ( >=  in8 in9))  ( >  in8 in9))  ( >=  in0 in10))  ( >  in0 in10))  ( >=  in1 in10))  ( >  in1 in10))  ( >=  in2 in10))  ( >  in2 in10))  ( >=  in3 in10))  ( >  in3 in10))  ( >=  in4 in10))  ( >  in4 in10))  ( >=  in5 in10))  ( >  in5 in10))  ( >=  in6 in10))  ( >  in6 in10))  ( >=  in7 in10))  ( >  in7 in10))  ( >=  in8 in10))  ( >  in8 in10))  ( >=  in9 in10))  ( >  in9 in10))  ( >=  in0 in11))  ( >  in0 in11))  ( >=  in1 in11))  ( >  in1 in11))  ( >=  in2 in11))  ( >  in2 in11))  ( >=  in3 in11))  ( >  in3 in11))  ( >=  in4 in11))  ( >  in4 in11))  ( >=  in5 in11))  ( >  in5 in11))  ( >=  in6 in11))  ( >  in6 in11))  ( >=  in7 in11))  ( >  in7 in11))  ( >=  in8 in11))  ( >  in8 in11))  ( >=  in9 in11))  ( >  in9 in11))  ( >=  in10 in11))  ( >  in10 in11))  ( >=  in0 in12))  ( >  in0 in12))  ( >=  in1 in12))  ( >  in1 in12))  ( >=  in2 in12))  ( >  in2 in12))  ( >=  in3 in12))  ( >  in3 in12))  ( >=  in4 in12))  ( >  in4 in12))  ( >=  in5 in12))  ( >  in5 in12))  ( >=  in6 in12))  ( >  in6 in12))  ( >=  in7 in12))  ( >  in7 in12))  ( >=  in8 in12))  ( >  in8 in12))  ( >=  in9 in12))  ( >  in9 in12))  ( >=  in10 in12))  ( >  in10 in12))  ( >=  in11 in12))  ( >  in11 in12))  ( >=  in0 in13))  ( >  in0 in13))  ( >=  in1 in13))  ( >  in1 in13))  ( >=  in2 in13))  ( >  in2 in13))  ( >=  in3 in13))  ( >  in3 in13))  ( >=  in4 in13))  ( >  in4 in13))  ( >=  in5 in13))  ( >  in5 in13))  ( >=  in6 in13))  ( >  in6 in13))  ( >=  in7 in13))  ( >  in7 in13))  ( >=  in8 in13))  ( >  in8 in13))  ( >=  in9 in13))  ( >  in9 in13))  ( >=  in10 in13))  ( >  in10 in13))  ( >=  in11 in13))  ( >  in11 in13))  ( >=  in12 in13))  ( >  in12 in13))  ( >=  in0 in14))  ( >  in0 in14))  ( >=  in1 in14))  ( >  in1 in14))  ( >=  in2 in14))  ( >  in2 in14))  ( >=  in3 in14))  ( >  in3 in14))  ( >=  in4 in14))  ( >  in4 in14))  ( >=  in5 in14))  ( >  in5 in14))  ( >=  in6 in14))  ( >  in6 in14))  ( >=  in7 in14))  ( >  in7 in14))  ( >=  in8 in14))  ( >  in8 in14))  ( >=  in9 in14))  ( >  in9 in14))  ( >=  in10 in14))  ( >  in10 in14))  ( >=  in11 in14))  ( >  in11 in14))  ( >=  in12 in14))  ( >  in12 in14))  ( >=  in13 in14))  ( >  in13 in14))  ( >=  in0 in15))  ( >  in0 in15))  ( >=  in1 in15))  ( >  in1 in15))  ( >=  in2 in15))  ( >  in2 in15))  ( >=  in3 in15))  ( >  in3 in15))  ( >=  in4 in15))  ( >  in4 in15))  ( >=  in5 in15))  ( >  in5 in15))  ( >=  in6 in15))  ( >  in6 in15))  ( >=  in7 in15))  ( >  in7 in15))  ( >=  in8 in15))  ( >  in8 in15))  ( >=  in9 in15))  ( >  in9 in15))  ( >=  in10 in15))  ( >  in10 in15))  ( >=  in11 in15))  ( >  in11 in15))  ( >=  in12 in15))  ( >  in12 in15))  ( >=  in13 in15))  ( >  in13 in15))  ( >=  in14 in15))  ( >  in14 in15))  ( >=  in0 in16))  ( >  in0 in16))  ( >=  in1 in16))  ( >  in1 in16))  ( >=  in2 in16))  ( >  in2 in16))  ( >=  in3 in16))  ( >  in3 in16))  ( >=  in4 in16))  ( >  in4 in16))  ( >=  in5 in16))  ( >  in5 in16))  ( >=  in6 in16))  ( >  in6 in16))  ( >=  in7 in16))  ( >  in7 in16))  ( >=  in8 in16))  ( >  in8 in16))  ( >=  in9 in16))  ( >  in9 in16))  ( >=  in10 in16))  ( >  in10 in16))  ( >=  in11 in16))  ( >  in11 in16))  ( >=  in12 in16))  ( >  in12 in16))  ( >=  in13 in16))  ( >  in13 in16))  ( >=  in14 in16))  ( >  in14 in16))  ( >=  in15 in16))  ( >  in15 in16))  ( >=  in0 in17))  ( >  in0 in17))  ( >=  in1 in17))  ( >  in1 in17))  ( >=  in2 in17))  ( >  in2 in17))  ( >=  in3 in17))  ( >  in3 in17))  ( >=  in4 in17))  ( >  in4 in17))  ( >=  in5 in17))  ( >  in5 in17))  ( >=  in6 in17))  ( >  in6 in17))  ( >=  in7 in17))  ( >  in7 in17))  ( >=  in8 in17))  ( >  in8 in17))  ( >=  in9 in17))  ( >  in9 in17))  ( >=  in10 in17))  ( >  in10 in17))  ( >=  in11 in17))  ( >  in11 in17))  ( >=  in12 in17))  ( >  in12 in17))  ( >=  in13 in17))  ( >  in13 in17))  ( >=  in14 in17))  ( >  in14 in17))  ( >=  in15 in17))  ( >  in15 in17))  ( >=  in16 in17))  ( >  in16 in17))  ( >=  in0 in18))  ( >  in0 in18))  ( >=  in1 in18))  ( >  in1 in18))  ( >=  in2 in18))  ( >  in2 in18))  ( >=  in3 in18))  ( >  in3 in18))  ( >=  in4 in18))  ( >  in4 in18))  ( >=  in5 in18))  ( >  in5 in18))  ( >=  in6 in18))  ( >  in6 in18))  ( >=  in7 in18))  ( >  in7 in18))  ( >=  in8 in18))  ( >  in8 in18))  ( >=  in9 in18))  ( >  in9 in18))  ( >=  in10 in18))  ( >  in10 in18))  ( >=  in11 in18))  ( >  in11 in18))  ( >=  in12 in18))  ( >  in12 in18))  ( >=  in13 in18))  ( >  in13 in18))  ( >=  in14 in18))  ( >  in14 in18))  ( >=  in15 in18))  ( >  in15 in18))  ( >=  in16 in18))  ( >  in16 in18))  ( >=  in17 in18))  ( >  in17 in18))  ( >=  in0 in19))  ( >  in0 in19))  ( >=  in1 in19))  ( >  in1 in19))  ( >=  in2 in19))  ( >  in2 in19))  ( >=  in3 in19))  ( >  in3 in19))  ( >=  in4 in19))  ( >  in4 in19))  ( >=  in5 in19))  ( >  in5 in19))  ( >=  in6 in19))  ( >  in6 in19))  ( >=  in7 in19))  ( >  in7 in19))  ( >=  in8 in19))  ( >  in8 in19))  ( >=  in9 in19))  ( >  in9 in19))  ( >=  in10 in19))  ( >  in10 in19))  ( >=  in11 in19))  ( >  in11 in19))  ( >=  in12 in19))  ( >  in12 in19))  ( >=  in13 in19))  ( >  in13 in19))  ( >=  in14 in19))  ( >  in14 in19))  ( >=  in15 in19))  ( >  in15 in19))  ( >=  in16 in19))  ( >  in16 in19))  ( >=  in17 in19))  ( >  in17 in19))  ( >=  in18 in19))  ( >  in18 in19))  ( >=  in0 in20))  ( >  in0 in20))  ( >=  in1 in20))  ( >  in1 in20))  ( >=  in2 in20))  ( >  in2 in20))  ( >=  in3 in20))  ( >  in3 in20))  ( >=  in4 in20))  ( >  in4 in20))  ( >=  in5 in20))  ( >  in5 in20))  ( >=  in6 in20))  ( >  in6 in20))  ( >=  in7 in20))  ( >  in7 in20))  ( >=  in8 in20))  ( >  in8 in20))  ( >=  in9 in20))  ( >  in9 in20))  ( >=  in10 in20))  ( >  in10 in20))  ( >=  in11 in20))  ( >  in11 in20))  ( >=  in12 in20))  ( >  in12 in20))  ( >=  in13 in20))  ( >  in13 in20))  ( >=  in14 in20))  ( >  in14 in20))  ( >=  in15 in20))  ( >  in15 in20))  ( >=  in16 in20))  ( >  in16 in20))  ( >=  in17 in20))  ( >  in17 in20))  ( >=  in18 in20))  ( >  in18 in20))  ( >=  in19 in20))  ( >  in19 in20))  ( >=  in0 in21))  ( >  in0 in21))  ( >=  in1 in21))  ( >  in1 in21))  ( >=  in2 in21))  ( >  in2 in21))  ( >=  in3 in21))  ( >  in3 in21))  ( >=  in4 in21))  ( >  in4 in21))  ( >=  in5 in21))  ( >  in5 in21))  ( >=  in6 in21))  ( >  in6 in21))  ( >=  in7 in21))  ( >  in7 in21))  ( >=  in8 in21))  ( >  in8 in21))  ( >=  in9 in21))  ( >  in9 in21))  ( >=  in10 in21))  ( >  in10 in21))  ( >=  in11 in21))  ( >  in11 in21))  ( >=  in12 in21))  ( >  in12 in21))  ( >=  in13 in21))  ( >  in13 in21))  ( >=  in14 in21))  ( >  in14 in21))  ( >=  in15 in21))  ( >  in15 in21))  ( >=  in16 in21))  ( >  in16 in21))  ( >=  in17 in21))  ( >  in17 in21))  ( >=  in18 in21))  ( >  in18 in21))  ( >=  in19 in21))  ( >  in19 in21))  ( >=  in20 in21))  ( >  in20 in21))  ( >=  in0 in22))  ( >  in0 in22))  ( >=  in1 in22))  ( >  in1 in22))  ( >=  in2 in22))  ( >  in2 in22))  ( >=  in3 in22))  ( >  in3 in22))  ( >=  in4 in22))  ( >  in4 in22))  ( >=  in5 in22))  ( >  in5 in22))  ( >=  in6 in22))  ( >  in6 in22))  ( >=  in7 in22))  ( >  in7 in22))  ( >=  in8 in22))  ( >  in8 in22))  ( >=  in9 in22))  ( >  in9 in22))  ( >=  in10 in22))  ( >  in10 in22))  ( >=  in11 in22))  ( >  in11 in22))  ( >=  in12 in22))  ( >  in12 in22))  ( >=  in13 in22))  ( >  in13 in22))  ( >=  in14 in22))  ( >  in14 in22))  ( >=  in15 in22))  ( >  in15 in22))  ( >=  in16 in22))  ( >  in16 in22))  ( >=  in17 in22))  ( >  in17 in22))  ( >=  in18 in22))  ( >  in18 in22))  ( >=  in19 in22))  ( >  in19 in22))  ( >=  in20 in22))  ( >  in20 in22))  ( >=  in21 in22))  ( >  in21 in22))  ( >=  in0 in23))  ( >  in0 in23))  ( >=  in1 in23))  ( >  in1 in23))  ( >=  in2 in23))  ( >  in2 in23))  ( >=  in3 in23))  ( >  in3 in23))  ( >=  in4 in23))  ( >  in4 in23))  ( >=  in5 in23))  ( >  in5 in23))  ( >=  in6 in23))  ( >  in6 in23))  ( >=  in7 in23))  ( >  in7 in23))  ( >=  in8 in23))  ( >  in8 in23))  ( >=  in9 in23))  ( >  in9 in23))  ( >=  in10 in23))  ( >  in10 in23))  ( >=  in11 in23))  ( >  in11 in23))  ( >=  in12 in23))  ( >  in12 in23))  ( >=  in13 in23))  ( >  in13 in23))  ( >=  in14 in23))  ( >  in14 in23))  ( >=  in15 in23))  ( >  in15 in23))  ( >=  in16 in23))  ( >  in16 in23))  ( >=  in17 in23))  ( >  in17 in23))  ( >=  in18 in23))  ( >  in18 in23))  ( >=  in19 in23))  ( >  in19 in23))  ( >=  in20 in23))  ( >  in20 in23))  ( >=  in21 in23))  ( >  in21 in23))  ( >=  in22 in23))  ( >  in22 in23))  ( >=  in0 in24))  ( >  in0 in24))  ( >=  in1 in24))  ( >  in1 in24))  ( >=  in2 in24))  ( >  in2 in24))  ( >=  in3 in24))  ( >  in3 in24))  ( >=  in4 in24))  ( >  in4 in24))  ( >=  in5 in24))  ( >  in5 in24))  ( >=  in6 in24))  ( >  in6 in24))  ( >=  in7 in24))  ( >  in7 in24))  ( >=  in8 in24))  ( >  in8 in24))  ( >=  in9 in24))  ( >  in9 in24))  ( >=  in10 in24))  ( >  in10 in24))  ( >=  in11 in24))  ( >  in11 in24))  ( >=  in12 in24))  ( >  in12 in24))  ( >=  in13 in24))  ( >  in13 in24))  ( >=  in14 in24))  ( >  in14 in24))  ( >=  in15 in24))  ( >  in15 in24))  ( >=  in16 in24))  ( >  in16 in24))  ( >=  in17 in24))  ( >  in17 in24))  ( >=  in18 in24))  ( >  in18 in24))  ( >=  in19 in24))  ( >  in19 in24))  ( >=  in20 in24))  ( >  in20 in24))  ( >=  in21 in24))  ( >  in21 in24))  ( >=  in22 in24))  ( >  in22 in24))  ( >=  in23 in24))  ( >  in23 in24))  ( >=  in0 in25))  ( >  in0 in25))  ( >=  in1 in25))  ( >  in1 in25))  ( >=  in2 in25))  ( >  in2 in25))  ( >=  in3 in25))  ( >  in3 in25))  ( >=  in4 in25))  ( >  in4 in25))  ( >=  in5 in25))  ( >  in5 in25))  ( >=  in6 in25))  ( >  in6 in25))  ( >=  in7 in25))  ( >  in7 in25))  ( >=  in8 in25))  ( >  in8 in25))  ( >=  in9 in25))  ( >  in9 in25))  ( >=  in10 in25))  ( >  in10 in25))  ( >=  in11 in25))  ( >  in11 in25))  ( >=  in12 in25))  ( >  in12 in25))  ( >=  in13 in25))  ( >  in13 in25))  ( >=  in14 in25))  ( >  in14 in25))  ( >=  in15 in25))  ( >  in15 in25))  ( >=  in16 in25))  ( >  in16 in25))  ( >=  in17 in25))  ( >  in17 in25))  ( >=  in18 in25))  ( >  in18 in25))  ( >=  in19 in25))  ( >  in19 in25))  ( >=  in20 in25))  ( >  in20 in25))  ( >=  in21 in25))  ( >  in21 in25))  ( >=  in22 in25))  ( >  in22 in25))  ( >=  in23 in25))  ( >  in23 in25))  ( >=  in24 in25))  ( >  in24 in25))  ( >=  in0 in26))  ( >  in0 in26))  ( >=  in1 in26))  ( >  in1 in26))  ( >=  in2 in26))  ( >  in2 in26))  ( >=  in3 in26))  ( >  in3 in26))  ( >=  in4 in26))  ( >  in4 in26))  ( >=  in5 in26))  ( >  in5 in26))  ( >=  in6 in26))  ( >  in6 in26))  ( >=  in7 in26))  ( >  in7 in26))  ( >=  in8 in26))  ( >  in8 in26))  ( >=  in9 in26))  ( >  in9 in26))  ( >=  in10 in26))  ( >  in10 in26))  ( >=  in11 in26))  ( >  in11 in26))  ( >=  in12 in26))  ( >  in12 in26))  ( >=  in13 in26))  ( >  in13 in26))  ( >=  in14 in26))  ( >  in14 in26))  ( >=  in15 in26))  ( >  in15 in26))  ( >=  in16 in26))  ( >  in16 in26))  ( >=  in17 in26))  ( >  in17 in26))  ( >=  in18 in26))  ( >  in18 in26))  ( >=  in19 in26))  ( >  in19 in26))  ( >=  in20 in26))  ( >  in20 in26))  ( >=  in21 in26))  ( >  in21 in26))  ( >=  in22 in26))  ( >  in22 in26))  ( >=  in23 in26))  ( >  in23 in26))  ( >=  in24 in26))  ( >  in24 in26))  ( >=  in25 in26))  ( >  in25 in26))  ( >=  in0 in27))  ( >  in0 in27))  ( >=  in1 in27))  ( >  in1 in27))  ( >=  in2 in27))  ( >  in2 in27))  ( >=  in3 in27))  ( >  in3 in27))  ( >=  in4 in27))  ( >  in4 in27))  ( >=  in5 in27))  ( >  in5 in27))  ( >=  in6 in27))  ( >  in6 in27))  ( >=  in7 in27))  ( >  in7 in27))  ( >=  in8 in27))  ( >  in8 in27))  ( >=  in9 in27))  ( >  in9 in27))  ( >=  in10 in27))  ( >  in10 in27))  ( >=  in11 in27))  ( >  in11 in27))  ( >=  in12 in27))  ( >  in12 in27))  ( >=  in13 in27))  ( >  in13 in27))  ( >=  in14 in27))  ( >  in14 in27))  ( >=  in15 in27))  ( >  in15 in27))  ( >=  in16 in27))  ( >  in16 in27))  ( >=  in17 in27))  ( >  in17 in27))  ( >=  in18 in27))  ( >  in18 in27))  ( >=  in19 in27))  ( >  in19 in27))  ( >=  in20 in27))  ( >  in20 in27))  ( >=  in21 in27))  ( >  in21 in27))  ( >=  in22 in27))  ( >  in22 in27))  ( >=  in23 in27))  ( >  in23 in27))  ( >=  in24 in27))  ( >  in24 in27))  ( >=  in25 in27))  ( >  in25 in27))  ( >=  in26 in27))  ( >  in26 in27))  ( >=  in0 in28))  ( >  in0 in28))  ( >=  in1 in28))  ( >  in1 in28))  ( >=  in2 in28))  ( >  in2 in28))  ( >=  in3 in28))  ( >  in3 in28))  ( >=  in4 in28))  ( >  in4 in28))  ( >=  in5 in28))  ( >  in5 in28))  ( >=  in6 in28))  ( >  in6 in28))  ( >=  in7 in28))  ( >  in7 in28))  ( >=  in8 in28))  ( >  in8 in28))  ( >=  in9 in28))  ( >  in9 in28))  ( >=  in10 in28))  ( >  in10 in28))  ( >=  in11 in28))  ( >  in11 in28))  ( >=  in12 in28))  ( >  in12 in28))  ( >=  in13 in28))  ( >  in13 in28))  ( >=  in14 in28))  ( >  in14 in28))  ( >=  in15 in28))  ( >  in15 in28))  ( >=  in16 in28))  ( >  in16 in28))  ( >=  in17 in28))  ( >  in17 in28))  ( >=  in18 in28))  ( >  in18 in28))  ( >=  in19 in28))  ( >  in19 in28))  ( >=  in20 in28))  ( >  in20 in28))  ( >=  in21 in28))  ( >  in21 in28))  ( >=  in22 in28))  ( >  in22 in28))  ( >=  in23 in28))  ( >  in23 in28))  ( >=  in24 in28))  ( >  in24 in28))  ( >=  in25 in28))  ( >  in25 in28))  ( >=  in26 in28))  ( >  in26 in28))  ( >=  in27 in28))  ( >  in27 in28))  ( >=  in0 in29))  ( >  in0 in29))  ( >=  in1 in29))  ( >  in1 in29))  ( >=  in2 in29))  ( >  in2 in29))  ( >=  in3 in29))  ( >  in3 in29))  ( >=  in4 in29))  ( >  in4 in29))  ( >=  in5 in29))  ( >  in5 in29))  ( >=  in6 in29))  ( >  in6 in29))  ( >=  in7 in29))  ( >  in7 in29))  ( >=  in8 in29))  ( >  in8 in29))  ( >=  in9 in29))  ( >  in9 in29))  ( >=  in10 in29))  ( >  in10 in29))  ( >=  in11 in29))  ( >  in11 in29))  ( >=  in12 in29))  ( >  in12 in29))  ( >=  in13 in29))  ( >  in13 in29))  ( >=  in14 in29))  ( >  in14 in29))  ( >=  in15 in29))  ( >  in15 in29))  ( >=  in16 in29))  ( >  in16 in29))  ( >=  in17 in29))  ( >  in17 in29))  ( >=  in18 in29))  ( >  in18 in29))  ( >=  in19 in29))  ( >  in19 in29))  ( >=  in20 in29))  ( >  in20 in29))  ( >=  in21 in29))  ( >  in21 in29))  ( >=  in22 in29))  ( >  in22 in29))  ( >=  in23 in29))  ( >  in23 in29))  ( >=  in24 in29))  ( >  in24 in29))  ( >=  in25 in29))  ( >  in25 in29))  ( >=  in26 in29))  ( >  in26 in29))  ( >=  in27 in29))  ( >  in27 in29))  ( >=  in28 in29))  ( >  in28 in29)) (not ( = in0 in)))  ( >=  in0 in)) (not ( = in1 in)))  ( >=  in1 in)) (not ( = in2 in)))  ( >=  in2 in)) (not ( = in3 in)))  ( >=  in3 in)) (not ( = in4 in)))  ( >=  in4 in)) (not ( = in5 in)))  ( >=  in5 in)) (not ( = in6 in)))  ( >=  in6 in)) (not ( = in7 in)))  ( >=  in7 in)) (not ( = in8 in)))  ( >=  in8 in)) (not ( = in9 in)))  ( >=  in9 in)) (not ( = in10 in)))  ( >=  in10 in)) (not ( = in11 in)))  ( >=  in11 in)) (not ( = in12 in)))  ( >=  in12 in)) (not ( = in13 in)))  ( >=  in13 in)) (not ( = in14 in)))  ( >=  in14 in)) (not ( = in15 in)))  ( >=  in15 in)) (not ( = in16 in)))  ( >=  in16 in)) (not ( = in17 in)))  ( >=  in17 in)) (not ( = in18 in)))  ( >=  in18 in)) (not ( = in19 in)))  ( >=  in19 in)) (not ( = in20 in)))  ( >=  in20 in)) (not ( = in21 in)))  ( >=  in21 in)) (not ( = in22 in)))  ( >=  in22 in)) (not ( = in23 in)))  ( >=  in23 in)) (not ( = in24 in)))  ( >=  in24 in)) (not ( = in25 in)))  ( >=  in25 in)) (not ( = in26 in)))  ( >=  in26 in)) (not ( = in27 in)))  ( >=  in27 in)) (not ( = in28 in)))  ( >=  in28 in)) (not ( = in29 in)))  ( >=  in29 in)))

(check-sat)
(get-model)